<number of tasks>
35

<cycle time>
69

<task times>
1 29
2 3
3 5
4 22
5 6
6 14
7 2
8 5
9 22
10 30
11 23
12 30
13 23
14 2
15 19
16 29
17 2
18 2
19 19
20 29
21 6
22 10
23 16
24 23
25 5
26 5
27 5
28 40
29 2
30 5
31 5
32 1
33 40
34 2
35 2

<task process alternatives>
1: 24,15 ; 35,8
2: 3,15 ; 4,8
3: 4,15 ; 6,8
4: 18,15 ; 27,8
5: 5,15 ; 8,8
6: 12,15 ; 17,8
7: 2,15 ; 3,8
8: 4,15 ; 6,8
9: 18,15 ; 27,8
10: 24,15 ; 36,8
11: 19,15 ; 28,8
12: 24,15 ; 36,8
13: 19,15 ; 28,8
14: 2,15 ; 3,8
15: 16,15 ; 23,8
16: 24,15 ; 35,8
17: 2,15 ; 3,8
18: 2,15 ; 3,8
19: 16,15 ; 23,8
20: 24,15 ; 35,8
21: 5,15 ; 8,8
22: 8,15 ; 12,8
23: 13,15 ; 20,8
24: 19,15 ; 28,8
25: 4,15 ; 6,8
26: 4,15 ; 6,8
27: 4,15 ; 6,8
28: 32,15 ; 48,8
29: 2,15 ; 3,8
30: 4,15 ; 6,8
31: 4,15 ; 6,8
32: 1,15 ; 2,8
33: 32,15 ; 48,8
34: 2,15 ; 3,8
35: 2,15 ; 3,8

<incompatible tasks>
28,22
22,27
25,2
16,18
30,23

<precedence relations>
24,27
13,33
3,4
26,27
21,22
22,23
21,25
31,32
8,9
27,28
25,26
1,12
27,34
6,8
32,33
33,35
18,19
5,6
21,30
4,11
12,18
14,15
23,24
1,2
9,13
17,20
1,5
10,14
19,20
28,29
27,33
11,28
6,7
15,16
16,21
13,28
7,18
20,21
2,3
1,10
30,31
11,33
7,14

<number of task attributes>
3

<task attribute values>
1,1:70
1,2:69
1,3:64
2,1:6
2,2:6
2,3:17
3,2:9
3,3:1
4,1:69
4,2:51
4,3:32
5,1:21
5,2:11
5,3:15
6,1:2
6,3:2
7,2:2
8,2:2
9,1:48
9,2:89
9,3:6
10,1:92
10,2:23
10,3:24
11,1:23
11,3:48
12,1:2
12,2:14
12,3:19
13,1:6
13,2:28
13,3:1
14,2:2
14,3:20
15,1:84
15,2:62
15,3:76
16,1:29
16,3:37
18,1:5
18,2:56
18,3:33
19,1:8
19,2:24
19,3:5
20,1:2
20,2:1
20,3:2
21,1:1
21,2:4
21,3:39
22,1:6
22,2:6
22,3:1
23,1:32
23,2:51
23,3:99
24,1:99
24,2:72
24,3:49
25,1:54
25,2:29
26,1:5
26,2:18
27,2:9
27,3:44
28,2:7
28,3:5
29,1:81
29,2:76
29,3:98
30,1:16
31,1:2
31,2:8
31,3:1
32,2:1
33,2:2
34,2:3
35,2:6

<attribute bounds per station>
1:100
2:100
3:100

<incompatible tasks>
2,26
3,12
4,22
4,29
7,12
7,34
8,25
8,28
8,31
10,29
12,20
12,30
13,15
13,31
14,17
16,29
18,29
18,35
19,21
20,24
20,35
21,28
21,31
23,35
24,25
24,26
26,29

<optimal SALBP-1 value>
8

<rand seed>
236278236

<end>
